34
75
52	2
51	5
50	4
49	3
48	2
47	2
46	3
45	4
44	1
43	3
42	1
41	6
40	3
38	2
37	3
36	2
35	3
34	2
33	2
32	1
31	5
30	2
29	1
28	2
27	1
26	2
25	6
24	4
23	2
21	4
18	4
17	7
16	2
15	4
